(declare-const v0 Bool)
(declare-const v1 Bool)
(declare-const v2 Bool)
(declare-const v3 Bool)
(declare-const v4 Bool)
(assert (edge true (or v2 v3)))
(assert (edge (or (not v3) (not v0)) (or v1 v3)))
(assert (edge (or (not v1) (not v4)) (or (not v4) (not v2))))
(assert (edge (not v3) (or (not v1) v3)))
(assert (edge (or v1 (not v4)) (or v1 (not v3) (not v4))))
(assert (not (edge (or (not v1) (not v3) (not v4)) (or v0 (not v2) (not v4)))))